 vasp.5.3.3 18Dez12 (build Jun 18 2015 10:56:51) complex

 executed on Dell of Center for Computational Chemistry date 2016.11.16  20:54:51

 INCAR:
 POTCAR:    PAW_PBE P 17Jan2003
 POTCAR:   PAW_PBE Ni 06Sep2000
 POTCAR:    PAW_PBE P 17Jan2003

 POTCAR:   PAW_PBE Ni 06Sep2000

 Optimization of the real space projectors (new method)

 maximal supplied QI-value         = 19.84
 optimisation between [QCUT,QGAM] = [ 11.31, 22.82] = [ 35.82,145.81] Ry
 Optimized for a Real-space Cutoff    1.20 Angstroem

   l    n(q)    QCUT    max X(q) W(low)/X(q) W(high)/X(q)  e(spline)
   0      8    11.310     6.651    0.17E-04    0.25E-05    0.49E-08
   0      8    11.310    90.285    0.15E-03    0.18E-03    0.54E-07
   1      8    11.310     4.328    0.24E-04    0.36E-04    0.20E-07
   1      8    11.310    54.583    0.15E-03    0.19E-03    0.85E-07
 Optimization of the real space projectors (new method)

 maximal supplied QI-value         = 16.25
 optimisation between [QCUT,QGAM] = [ 11.38, 22.75] = [ 36.24,144.96] Ry
 Optimized for a Real-space Cutoff    1.52 Angstroem

   l    n(q)    QCUT    max X(q) W(low)/X(q) W(high)/X(q)  e(spline)
   2      9    11.376     4.811    0.20E-04    0.13E-04    0.50E-07
   2      9    11.376    15.146    0.19E-03    0.89E-04    0.22E-06
   0     10    11.376    14.357    0.19E-04    0.21E-05    0.12E-07
   0     10    11.376    43.282    0.54E-04    0.36E-04    0.24E-06
   1     10    11.376     5.514    0.11E-04    0.58E-05    0.24E-07
   1     10    11.376     7.697    0.48E-04    0.48E-04    0.11E-06
  PAW_PBE P 17Jan2003                   :
 PAW_PBE Ni 06Sep2000                   :

 POSCAR: xyz P Ni
  positions in direct lattice
  velocities in cartesian coordinates
 exchange correlation table for  LEXCH =        8
   RHO(1)=    0.500       N(1)  =     2000
   RHO(2)=  100.500       N(2)  =     4000

 VTST: version 3.1, (03/28/14)

 CHAIN: initializing optimizer

 OPT: Using VASP Dynamics algorithm
 CHAIN: Read ICHAIN            0

 POSCAR: xyz P Ni
  positions in direct lattice
  velocities in cartesian coordinates

 ion  position               nearest neighbor table
   1  0.461  0.379  0.010-  30 2.24  31 2.30  34 2.42  35 2.43   7 2.45
   2  0.461  0.879  0.010-  29 2.24  32 2.30  33 2.42  36 2.43   8 2.45
   3  0.052  0.129  0.010-  31 2.24  29 2.30  35 2.42  33 2.43   6 2.45
   4  0.052  0.629  0.010-  32 2.24  30 2.30  36 2.42  34 2.43   5 2.45
   5  0.955  0.458  0.092-  30 2.18  31 2.21  35 2.24  34 2.29  40 2.31  37 2.32   4 2.45  12 2.53

   6  0.955  0.958  0.092-  29 2.18  32 2.21  36 2.24  33 2.29  39 2.31  38 2.32   3 2.45  11 2.53

[...]

  33  0.311  0.037  0.089-   7 2.24   6 2.29  10 2.36   2 2.42   3 2.43  11 2.45  35 2.53  36 2.53
                            29 2.66  39 2.87
  34  0.311  0.537  0.089-   8 2.24   5 2.29   9 2.36   1 2.42   4 2.43  12 2.45  36 2.53  35 2.53
                            30 2.66  40 2.87
  35  0.202  0.287  0.089-   5 2.24   7 2.29  11 2.36   3 2.42   1 2.43   9 2.45  33 2.53  34 2.53
                            31 2.66  37 2.87
  36  0.202  0.787  0.089-   6 2.24   8 2.29  12 2.36   4 2.42   2 2.43  10 2.45  34 2.53  33 2.53
                            32 2.66  38 2.87
  37  0.806  0.301  0.165-  13 2.26  11 2.26   7 2.31   5 2.32   9 2.39  40 2.51  39 2.51  31 2.79
                            35 2.87  15 3.02
  38  0.806  0.801  0.165-  14 2.26  12 2.26   8 2.31   6 2.32  10 2.39  39 2.51  40 2.51  32 2.79
                            36 2.87  16 3.02
  39  0.707  0.051  0.166-  15 2.25  10 2.26   6 2.31   7 2.33  11 2.39  38 2.51  37 2.51  29 2.79
                            33 2.87  14 3.01
  40  0.707  0.551  0.166-  16 2.25   9 2.26   5 2.31   8 2.33  12 2.39  37 2.51  38 2.51  30 2.79
                            34 2.87  13 3.01
  41  0.310  0.291  0.264-   9 2.26  15 2.26  13 2.32  17 2.32  19 2.33  43 2.52  44 2.52  47 2.74
                            11 2.78
  42  0.310  0.791  0.264-  10 2.26  16 2.26  14 2.32  18 2.32  20 2.33  44 2.52  43 2.52  48 2.74
                            12 2.78
  43  0.204  0.041  0.264-  11 2.26  14 2.26  15 2.32  19 2.32  18 2.33  41 2.52  42 2.52  45 2.74
                            10 2.78
  44  0.204  0.541  0.264-  12 2.26  13 2.26  16 2.32  20 2.32  17 2.33  42 2.52  41 2.52  46 2.74
                             9 2.78
  45  0.816  0.027  0.332-  14 2.25  19 2.25  22 2.28  15 2.30  18 2.36  47 2.54  48 2.54  43 2.74

[...]

  48  0.698  0.777  0.332-  16 2.25  18 2.25  24 2.28  14 2.30  20 2.36  46 2.54  45 2.54  42 2.74

  49  0.317  0.027  0.438-  23 2.23  22 2.26  26 2.30  18 2.31  27 2.37  51 2.54  52 2.55  55 2.59
                            19 3.02
  50  0.317  0.527  0.438-  24 2.23  21 2.26  25 2.30  17 2.31  28 2.37  52 2.54  51 2.55  56 2.59
                            20 3.02
  51  0.198  0.277  0.438-  21 2.23  23 2.26  27 2.30  19 2.31  25 2.37  49 2.54  50 2.55  53 2.59
                            17 3.02
  52  0.198  0.777  0.438-  22 2.23  24 2.26  28 2.30  20 2.31  26 2.37  50 2.54  49 2.55  54 2.59
                            18 3.02
  53  0.808  0.293  0.490-  23 2.19  21 2.22  27 2.25  25 2.25  56 2.52  55 2.52  51 2.59
  54  0.808  0.793  0.490-  24 2.19  22 2.22  28 2.25  26 2.25  55 2.52  56 2.52  52 2.59
  55  0.706  0.042  0.490-  22 2.19  23 2.22  26 2.25  27 2.25  54 2.52  53 2.52  49 2.59
  56  0.706  0.542  0.490-  21 2.19  24 2.22  25 2.25  28 2.25  53 2.52  54 2.52  50 2.59

  LATTYP: Found a simple orthorhombic cell.
 ALAT       =     6.0500000000
 B/A-ratio  =     1.6135537190
 C/A-ratio  =     3.3890192248

  Lattice vectors:

 A1 = (   6.0500000000,   0.0000000000,   0.0000000000)
 A2 = (   0.0000000000,   9.7620000000,   0.0000000000)
 A3 = (   0.0000000000,   0.0000000000,  20.5035663100)

Analysis of symmetry for initial positions (statically):
 Subroutine PRICEL returns following result:

[...]

   2 primitive cells build up your supercell.

 Routine SETGRP: Setting up the symmetry group for a
 simple orthorhombic supercell.

 Subroutine GETGRP returns: Found  1 space group operations
 (whereof  1 operations were pure point group operations)
 out of a pool of  8 trial point group operations.

The static configuration has the point symmetry C_1 .

Analysis of symmetry for dynamics (positions and initial velocities):
 Subroutine PRICEL returns following result:

[...]

The dynamic configuration has the point symmetry C_1 .

Analysis of constrained symmetry for selective dynamics:
 Subroutine PRICEL returns following result:

  LATTYP: Found a simple orthorhombic cell.
 ALAT       =     4.8810000000
 B/A-ratio  =     1.2395001024
 C/A-ratio  =     4.2006896763

  Lattice vectors:

 A1 = (   0.0000000000,  -4.8810000000,   0.0000000000)
 A2 = (  -6.0500000000,   0.0000000000,   0.0000000000)
 A3 = (   0.0000000000,   0.0000000000, -20.5035663100)

   2 primitive cells build up your supercell.

 Routine SETGRP: Setting up the symmetry group for a
 simple orthorhombic supercell.

 Subroutine GETGRP returns: Found  1 space group operations
 (whereof  1 operations were pure point group operations)
 out of a pool of  8 trial point group operations.

The constrained configuration has the point symmetry C_1 .

 irot  :   1
 isymop:   1   0   0
           0   1   0
           0   0   1

 gtrans:    -0.0000000    -0.0000000    -0.0000000

 ptrans:     0.0000000     0.0000000     0.0000000
 rotmap:
 (   1->   1)  (   2->   2)  (   3->   3)  (   4->   4)  (   5->   5)
 (   6->   6)  (   7->   7)  (   8->   8)  (   9->   9)  (  10->  10)
 (  11->  11)  (  12->  12)  (  13->  13)  (  14->  14)  (  15->  15)
 (  16->  16)  (  17->  17)  (  18->  18)  (  19->  19)  (  20->  20)
 (  21->  21)  (  22->  22)  (  23->  23)  (  24->  24)  (  25->  25)
 (  26->  26)  (  27->  27)  (  28->  28)  (  29->  29)  (  30->  30)
 (  31->  31)  (  32->  32)  (  33->  33)  (  34->  34)  (  35->  35)
 (  36->  36)  (  37->  37)  (  38->  38)  (  39->  39)  (  40->  40)
 (  41->  41)  (  42->  42)  (  43->  43)  (  44->  44)  (  45->  45)
 (  46->  46)  (  47->  47)  (  48->  48)  (  49->  49)  (  50->  50)
 (  51->  51)  (  52->  52)  (  53->  53)  (  54->  54)  (  55->  55)
 (  56->  56)

 ptrans:     0.0000000     0.5000000     0.0000000
 rotmap:
 (   1->   2)  (   2->   1)  (   3->   4)  (   4->   3)  (   5->   6)
 (   6->   5)  (   7->   8)  (   8->   7)  (   9->  10)  (  10->   9)
 (  11->  12)  (  12->  11)  (  13->  14)  (  14->  13)  (  15->  16)
 (  16->  15)  (  17->  18)  (  18->  17)  (  19->  20)  (  20->  19)
 (  21->  22)  (  22->  21)  (  23->  24)  (  24->  23)  (  25->  26)
 (  26->  25)  (  27->  28)  (  28->  27)  (  29->  30)  (  30->  29)
 (  31->  32)  (  32->  31)  (  33->  34)  (  34->  33)  (  35->  36)
 (  36->  35)  (  37->  38)  (  38->  37)  (  39->  40)  (  40->  39)
 (  41->  42)  (  42->  41)  (  43->  44)  (  44->  43)  (  45->  46)
 (  46->  45)  (  47->  48)  (  48->  47)  (  49->  50)  (  50->  49)
 (  51->  52)  (  52->  51)  (  53->  54)  (  54->  53)  (  55->  56)
 (  56->  55)

 KPOINTS: mesh auto

Automatic generation of k-mesh.
Space group operators:
 irot       det(A)        alpha          n_x          n_y          n_z        tau_x        tau_y        tau_z
    1     1.000000     0.000000     1.000000     0.000000     0.000000    -0.000000    -0.000000    -0.000000

 Subroutine IBZKPT returns following result:

 Found     20 irreducible k-points:

 Following reciprocal coordinates:
            Coordinates               Weight
  0.000000  0.000000  0.000000      1.000000
  0.166667  0.000000  0.000000      2.000000
  0.333333  0.000000  0.000000      2.000000
  0.500000  0.000000  0.000000      1.000000
  0.000000  0.166667  0.000000      2.000000
  0.166667  0.166667  0.000000      2.000000
  0.333333  0.166667  0.000000      2.000000
  0.500000  0.166667  0.000000      2.000000
 -0.333333  0.166667  0.000000      2.000000
 -0.166667  0.166667  0.000000      2.000000
  0.000000  0.333333  0.000000      2.000000
  0.166667  0.333333  0.000000      2.000000
  0.333333  0.333333  0.000000      2.000000
  0.500000  0.333333  0.000000      2.000000
 -0.333333  0.333333  0.000000      2.000000
 -0.166667  0.333333  0.000000      2.000000
  0.000000  0.500000  0.000000      1.000000
  0.166667  0.500000  0.000000      2.000000
  0.333333  0.500000  0.000000      2.000000
  0.500000  0.500000  0.000000      1.000000

 Following cartesian coordinates:
            Coordinates               Weight
  0.000000  0.000000  0.000000      1.000000
  0.027548  0.000000  0.000000      2.000000
  0.055096  0.000000  0.000000      2.000000
  0.082645  0.000000  0.000000      1.000000
  0.000000  0.017073  0.000000      2.000000
  0.027548  0.017073  0.000000      2.000000
  0.055096  0.017073  0.000000      2.000000
  0.082645  0.017073  0.000000      2.000000
 -0.055096  0.017073  0.000000      2.000000
 -0.027548  0.017073  0.000000      2.000000
  0.000000  0.034146  0.000000      2.000000
  0.027548  0.034146  0.000000      2.000000
  0.055096  0.034146  0.000000      2.000000
  0.082645  0.034146  0.000000      2.000000
 -0.055096  0.034146  0.000000      2.000000
 -0.027548  0.034146  0.000000      2.000000
[...]
  energy-cutoff  :      500.00
  volume of cell :     1210.94
      direct lattice vectors                 reciprocal lattice vectors
     6.050000000  0.000000000  0.000000000     0.165289256  0.000000000  0.000000000
     0.000000000  9.762000000  0.000000000     0.000000000  0.102438025  0.000000000
     0.000000000  0.000000000 20.503566310     0.000000000  0.000000000  0.048772003

  length of vectors
     6.050000000  9.762000000 20.503566310     0.165289256  0.102438025  0.048772003

 FORCES acting on ions
    electron-ion (+dipol)            ewald-force                    non-local-force                 convergence-correction
    0.879E+02  0.282E+02  0.122E+04   -0.887E+02 -0.276E+02 -0.122E+04    0.105E+01 -0.610E+00  0.652E+01   -0.296E+00  0.188E-01  0.135E+01
    0.879E+02  0.282E+02  0.122E+04   -0.887E+02 -0.276E+02 -0.122E+04    0.105E+01 -0.610E+00  0.652E+01   -0.296E+00  0.186E-01  0.135E+01
   -0.881E+02  0.285E+02  0.121E+04    0.889E+02 -0.279E+02 -0.122E+04   -0.102E+01 -0.614E+00  0.651E+01    0.297E+00  0.296E-01  0.135E+01
   -0.881E+02  0.285E+02  0.121E+04    0.889E+02 -0.279E+02 -0.122E+04   -0.102E+01 -0.614E+00  0.651E+01    0.297E+00  0.294E-01  0.135E+01
   -0.586E+02 -0.358E+02  0.758E+03    0.568E+02  0.342E+02 -0.760E+03    0.131E+01  0.186E+01  0.685E+00    0.424E+00 -0.154E+00  0.117E+01
   -0.586E+02 -0.358E+02  0.758E+03    0.568E+02  0.342E+02 -0.760E+03    0.131E+01  0.186E+01  0.685E+00    0.424E+00 -0.154E+00  0.117E+01
    0.584E+02 -0.353E+02  0.757E+03   -0.566E+02  0.337E+02 -0.759E+03   -0.127E+01  0.183E+01  0.675E+00   -0.423E+00 -0.145E+00  0.117E+01
    0.584E+02 -0.353E+02  0.757E+03   -0.566E+02  0.337E+02 -0.759E+03   -0.127E+01  0.183E+01  0.675E+00   -0.423E+00 -0.146E+00  0.117E+01
    0.330E+02  0.141E+02  0.355E+03   -0.329E+02 -0.145E+02 -0.353E+03    0.102E+00  0.455E+00 -0.183E+01   -0.148E+00 -0.826E-02  0.341E-01
    0.330E+02  0.141E+02  0.355E+03   -0.329E+02 -0.145E+02 -0.353E+03    0.102E+00  0.455E+00 -0.183E+01   -0.148E+00 -0.842E-02  0.339E-01
   -0.329E+02  0.140E+02  0.355E+03    0.328E+02 -0.145E+02 -0.353E+03   -0.815E-01  0.470E+00 -0.183E+01    0.152E+00 -0.127E-02  0.277E-01
   -0.329E+02  0.140E+02  0.355E+03    0.328E+02 -0.145E+02 -0.353E+03   -0.815E-01  0.470E+00 -0.183E+01    0.152E+00 -0.169E-02  0.277E-01
    0.510E+01  0.170E+02  0.231E+00   -0.583E+01 -0.159E+02 -0.101E+01    0.706E+00 -0.123E+01  0.138E+01   -0.177E-01  0.613E-01 -0.644E+00
    0.510E+01  0.170E+02  0.230E+00   -0.583E+01 -0.159E+02 -0.101E+01    0.706E+00 -0.123E+01  0.138E+01   -0.177E-01  0.614E-01 -0.644E+00
   -0.515E+01  0.165E+02  0.663E-01    0.590E+01 -0.154E+02 -0.883E+00   -0.712E+00 -0.121E+01  0.141E+01    0.118E-01  0.789E-01 -0.638E+00
   -0.515E+01  0.165E+02  0.673E-01    0.590E+01 -0.154E+02 -0.883E+00   -0.712E+00 -0.121E+01  0.141E+01    0.116E-01  0.783E-01 -0.638E+00
    0.226E+02 -0.164E+02 -0.407E+03   -0.232E+02  0.158E+02  0.411E+03    0.467E+00  0.641E+00 -0.255E+01    0.144E+00 -0.185E-01 -0.141E+01
    0.226E+02 -0.164E+02 -0.407E+03   -0.232E+02  0.158E+02  0.411E+03    0.467E+00  0.641E+00 -0.255E+01    0.145E+00 -0.174E-01 -0.141E+01
   -0.224E+02 -0.167E+02 -0.407E+03    0.230E+02  0.162E+02  0.411E+03   -0.488E+00  0.647E+00 -0.255E+01   -0.145E+00 -0.876E-02 -0.142E+01
   -0.224E+02 -0.167E+02 -0.407E+03    0.230E+02  0.162E+02  0.411E+03   -0.488E+00  0.647E+00 -0.255E+01   -0.145E+00 -0.906E-02 -0.142E+01
   -0.169E+02 -0.167E+02 -0.741E+03    0.162E+02  0.160E+02  0.741E+03    0.791E+00  0.778E+00  0.101E+01   -0.600E-01 -0.178E-01 -0.157E+01
   -0.169E+02 -0.167E+02 -0.741E+03    0.162E+02  0.160E+02  0.741E+03    0.791E+00  0.778E+00  0.101E+01   -0.604E-01 -0.170E-01 -0.158E+01
    0.163E+02 -0.171E+02 -0.741E+03   -0.156E+02  0.164E+02  0.742E+03   -0.737E+00  0.793E+00  0.102E+01    0.725E-01  0.442E-02 -0.158E+01
    0.163E+02 -0.171E+02 -0.741E+03   -0.156E+02  0.164E+02  0.742E+03   -0.737E+00  0.793E+00  0.102E+01    0.721E-01  0.391E-02 -0.158E+01
    0.724E+02  0.299E+02 -0.120E+04   -0.726E+02 -0.288E+02  0.120E+04    0.285E+00 -0.105E+01 -0.555E+01   -0.725E-01 -0.427E-01 -0.459E+00
    0.724E+02  0.299E+02 -0.120E+04   -0.726E+02 -0.288E+02  0.120E+04    0.285E+00 -0.105E+01 -0.555E+01   -0.721E-01 -0.426E-01 -0.459E+00
   -0.723E+02  0.297E+02 -0.120E+04    0.725E+02 -0.286E+02  0.120E+04   -0.293E+00 -0.103E+01 -0.556E+01    0.815E-01 -0.207E-01 -0.458E+00
   -0.723E+02  0.297E+02 -0.120E+04    0.725E+02 -0.286E+02  0.120E+04   -0.293E+00 -0.103E+01 -0.556E+01    0.819E-01 -0.216E-01 -0.457E+00
    0.434E+02 -0.119E+02  0.226E+04   -0.440E+02  0.112E+02 -0.227E+04    0.913E+00  0.601E+00  0.247E+01   -0.331E+00  0.637E-01  0.300E+01
    0.434E+02 -0.119E+02  0.226E+04   -0.440E+02  0.112E+02 -0.227E+04    0.913E+00  0.601E+00  0.247E+01   -0.331E+00  0.635E-01  0.300E+01
   -0.428E+02 -0.123E+02  0.226E+04    0.433E+02  0.116E+02 -0.227E+04   -0.862E+00  0.611E+00  0.251E+01    0.359E+00  0.657E-01  0.294E+01
   -0.428E+02 -0.123E+02  0.226E+04    0.433E+02  0.116E+02 -0.227E+04   -0.862E+00  0.611E+00  0.251E+01    0.359E+00  0.648E-01  0.294E+01
    0.343E+02  0.216E+01  0.161E+04   -0.325E+02 -0.324E+01 -0.161E+04   -0.159E+01  0.942E+00  0.143E+01   -0.200E+00  0.100E+00  0.223E+01
    0.343E+02  0.216E+01  0.161E+04   -0.325E+02 -0.324E+01 -0.161E+04   -0.159E+01  0.942E+00  0.143E+01   -0.200E+00  0.999E-01  0.223E+01
   -0.349E+02  0.184E+01  0.161E+04    0.331E+02 -0.288E+01 -0.161E+04    0.159E+01  0.943E+00  0.146E+01    0.177E+00  0.706E-01  0.221E+01
   -0.349E+02  0.184E+01  0.161E+04    0.331E+02 -0.288E+01 -0.161E+04    0.159E+01  0.943E+00  0.146E+01    0.177E+00  0.700E-01  0.221E+01
   -0.115E+02  0.187E+00  0.722E+03    0.118E+02  0.463E+00 -0.721E+03   -0.409E+00 -0.829E+00 -0.237E+01    0.102E+00  0.112E+00  0.515E+00
   -0.115E+02  0.188E+00  0.722E+03    0.118E+02  0.463E+00 -0.721E+03   -0.409E+00 -0.829E+00 -0.237E+01    0.101E+00  0.111E+00  0.515E+00
    0.116E+02 -0.868E+00  0.722E+03   -0.119E+02  0.155E+01 -0.720E+03    0.398E+00 -0.817E+00 -0.234E+01   -0.112E+00  0.922E-01  0.494E+00
    0.116E+02 -0.868E+00  0.722E+03   -0.119E+02  0.155E+01 -0.720E+03    0.398E+00 -0.817E+00 -0.234E+01   -0.112E+00  0.920E-01  0.494E+00
   -0.432E+01  0.272E+01 -0.476E+02    0.575E+01 -0.204E+01  0.489E+02   -0.152E+01 -0.574E+00  0.410E+00    0.443E-01 -0.498E-01 -0.160E+01
   -0.432E+01  0.272E+01 -0.476E+02    0.575E+01 -0.204E+01  0.489E+02   -0.152E+01 -0.574E+00  0.410E+00    0.441E-01 -0.506E-01 -0.160E+01
    0.443E+01  0.289E+01 -0.479E+02   -0.590E+01 -0.220E+01  0.492E+02    0.153E+01 -0.575E+00  0.425E+00   -0.199E-01 -0.577E-01 -0.162E+01
    0.443E+01  0.289E+01 -0.479E+02   -0.590E+01 -0.220E+01  0.492E+02    0.153E+01 -0.575E+00  0.425E+00   -0.196E-01 -0.586E-01 -0.163E+01
   -0.647E+01 -0.213E+01 -0.715E+03    0.746E+01  0.136E+01  0.719E+03   -0.912E+00  0.892E+00 -0.165E+01   -0.934E-01 -0.107E+00 -0.248E+01
   -0.647E+01 -0.213E+01 -0.715E+03    0.746E+01  0.136E+01  0.719E+03   -0.912E+00  0.892E+00 -0.165E+01   -0.927E-01 -0.109E+00 -0.249E+01
    0.626E+01 -0.226E+01 -0.715E+03   -0.722E+01  0.149E+01  0.719E+03    0.922E+00  0.891E+00 -0.166E+01    0.566E-01 -0.109E+00 -0.247E+01
    0.626E+01 -0.226E+01 -0.715E+03   -0.722E+01  0.149E+01  0.719E+03    0.922E+00  0.891E+00 -0.166E+01    0.577E-01 -0.108E+00 -0.247E+01
    0.201E+02 -0.170E+01 -0.164E+04   -0.188E+02  0.657E+00  0.164E+04   -0.140E+01  0.926E+00 -0.224E+00    0.521E-01  0.674E-01 -0.265E+01
    0.201E+02 -0.169E+01 -0.164E+04   -0.188E+02  0.657E+00  0.164E+04   -0.140E+01  0.926E+00 -0.224E+00    0.516E-01  0.634E-01 -0.264E+01
   -0.193E+02 -0.252E+01 -0.164E+04    0.179E+02  0.151E+01  0.164E+04    0.142E+01  0.934E+00 -0.230E+00   -0.498E-01  0.453E-01 -0.262E+01
   -0.193E+02 -0.251E+01 -0.164E+04    0.179E+02  0.151E+01  0.164E+04    0.142E+01  0.934E+00 -0.230E+00   -0.505E-01  0.441E-01 -0.262E+01
   -0.303E+02 -0.106E+02 -0.216E+04    0.321E+02  0.107E+02  0.217E+04   -0.171E+01 -0.188E-01 -0.719E+00   -0.422E-01 -0.696E-01 -0.172E+01
   -0.303E+02 -0.106E+02 -0.216E+04    0.321E+02  0.107E+02  0.217E+04   -0.171E+01 -0.188E-01 -0.719E+00   -0.403E-01 -0.699E-01 -0.172E+01
    0.299E+02 -0.109E+02 -0.216E+04   -0.317E+02  0.110E+02  0.217E+04    0.169E+01 -0.305E-01 -0.731E+00    0.428E-01 -0.504E-01 -0.174E+01
    0.299E+02 -0.109E+02 -0.216E+04   -0.317E+02  0.110E+02  0.217E+04    0.169E+01 -0.305E-01 -0.731E+00    0.436E-01 -0.535E-01 -0.174E+01
   -0.345E+00 -0.111E+02  0.210E+02   -0.213E-13 -0.284E-13  0.136E-11    0.341E+00  0.112E+02 -0.377E+01    0.138E-01 -0.117E+00 -0.172E+02

 POSITION                                       TOTAL-FORCE (eV/Angst)
      2.78843      3.69893      0.19911         0.012636     -0.028553     -0.050416
      2.78843      8.57993      0.19911         0.012636     -0.028553     -0.050416
      0.31437      1.25795      0.20196         0.003408     -0.028881     -0.065826
      0.31437      6.13895      0.20196         0.003408     -0.028881     -0.065826
      5.77946      4.47485      1.89582        -0.070883      0.081119     -0.058502
      5.77946      9.35585      1.89582        -0.070883      0.081119     -0.058502
      3.37425      2.03644      1.89746         0.092405      0.055558     -0.071610
      3.37425      6.91744      1.89746         0.092405      0.055558     -0.071610
      2.65408      3.81401      3.53464         0.027584      0.028063      0.008951
      2.65408      8.69501      3.53464         0.027584      0.028063      0.008951
      0.45348      1.37404      3.53540        -0.028468      0.027462     -0.002369
      0.45348      6.25504      3.53540        -0.028468      0.027462     -0.002369
      5.74675      3.62928      5.35940        -0.042472     -0.076199     -0.049962
      5.74675      8.51028      5.35940        -0.042472     -0.076199     -0.049962
      3.41257      1.18717      5.35950         0.040254     -0.056305     -0.041978
      3.41257      6.06817      5.35950         0.040254     -0.056305     -0.041978
      2.71589      4.36330      6.95749         0.021728      0.050336     -0.050342
      2.71589      9.24430      6.95749         0.021728      0.050336     -0.050342
      0.39442      1.92158      6.95793        -0.028611      0.060276     -0.049479
      0.39442      6.80258      6.95793        -0.028611      0.060276     -0.049479
      5.83298      4.42339      8.78528         0.024729      0.022699      0.078325
      5.83298      9.30439      8.78528         0.024729      0.022699      0.078325
      3.32969      1.98166      8.78551         0.001253      0.045434      0.082393
      3.32969      6.86266      8.78551         0.001253      0.045434      0.082393
      2.81835      3.62976     10.44326        -0.006166      0.001495     -0.035153
      2.81835      8.51076     10.44326        -0.006166      0.001495     -0.035153
      0.29598      1.18844     10.44383         0.003733      0.014322     -0.038054
      0.29598      6.06944     10.44383         0.003733      0.014322     -0.038054
      4.24922      0.46259      0.60710        -0.008329     -0.032897      0.001263
      4.24922      5.34359      0.60710        -0.008329     -0.032897      0.001263
      4.90439      2.90219      0.60692        -0.003691     -0.017179     -0.007519
      4.90439      7.78319      0.60692        -0.003691     -0.017179     -0.007519
      1.88191      0.36299      1.82496        -0.002316     -0.035933     -0.027242
      1.88191      5.24399      1.82496        -0.002316     -0.035933     -0.027242
      1.22261      2.80311      1.82293         0.001444     -0.028786     -0.029067
      1.22261      7.68411      1.82293         0.001444     -0.028786     -0.029067
      4.87883      2.94146      3.39293        -0.011410     -0.066281      0.063530
      4.87883      7.82246      3.39293        -0.011410     -0.066281      0.063530
      4.27965      0.49961      3.39485         0.009508     -0.043720      0.044209
      4.27965      5.38061      3.39485         0.009508     -0.043720      0.044209
      1.87416      2.84111      5.41590        -0.045500      0.056164      0.079571
      1.87416      7.72211      5.41590        -0.045500      0.056164      0.079571
      1.23560      0.40091      5.41679         0.037157      0.052889      0.074417
      1.23560      5.28191      5.41679         0.037157      0.052889      0.074417
      4.93587      0.25941      6.81212        -0.014176      0.016261      0.014910
      4.93587      5.14041      6.81212        -0.014176      0.016261      0.014910
      4.22404      2.69988      6.81214         0.019749      0.014809      0.006699
      4.22404      7.58088      6.81214         0.019749      0.014809      0.006699
      1.91702      0.26675      8.97656         0.006021     -0.046746      0.073096
      1.91702      5.14775      8.97656         0.006021     -0.046746      0.073096
      1.19761      2.70633      8.97521        -0.030003     -0.023936      0.079126
      1.19761      7.58733      8.97521        -0.030003     -0.023936      0.079126
      4.89129      2.85557     10.04712         0.061444     -0.026433     -0.022733
      4.89129      7.73657     10.04712         0.061444     -0.026433     -0.022733
      4.27303      0.41465     10.04632        -0.071032     -0.015038     -0.006239
      4.27303      5.29565     10.04632        -0.071032     -0.015038     -0.006239
    total drift:                                0.009513      0.014225     -0.023090
  FORCES: max atom, RMS     0.129435    0.075070
  Number: max atom                 7
  FORCE total and by dimension    0.561775    0.092405

  FREE ENERGIE OF THE ION-ELECTRON SYSTEM (eV)
  free  energy   TOTEN  =      -325.65634996 eV

  energy  without entropy=     -325.65634996  energy(sigma->0) =     -325.65634996

 stress matrix after NEB project (eV)
     -6.28763     -0.00305     -0.18657
     -0.00305      0.01919      1.10971
     -0.18657      1.10971     -5.74641
  FORCES: max atom, RMS     0.129435    0.075070
  FORCE total and by dimension    0.561775    0.092405
  Stress total and by dimension    8.665360    6.287629
 writing wavefunctions

 total charge

# of ion     s       p       d       tot
  1        1.087   1.337   0.000   2.424
  2        1.087   1.337   0.000   2.424
  3        1.087   1.337   0.000   2.424
  4        1.087   1.337   0.000   2.424
  5        1.012   1.427   0.000   2.439
  6        1.012   1.427   0.000   2.439
  7        1.012   1.426   0.000   2.439
  8        1.012   1.426   0.000   2.439
  9        1.065   1.339   0.000   2.404
 10        1.065   1.339   0.000   2.404
 11        1.065   1.339   0.000   2.404
 12        1.065   1.339   0.000   2.404
 13        1.040   1.394   0.000   2.434
 14        1.040   1.394   0.000   2.434
 15        1.040   1.395   0.000   2.434
 16        1.040   1.395   0.000   2.434
 17        1.056   1.361   0.000   2.417
 18        1.056   1.361   0.000   2.417
 19        1.057   1.361   0.000   2.417
 20        1.057   1.361   0.000   2.417
 21        1.039   1.411   0.000   2.449
 22        1.039   1.411   0.000   2.449
 23        1.038   1.411   0.000   2.449
 24        1.038   1.411   0.000   2.449
 25        1.075   1.366   0.000   2.440
 26        1.075   1.366   0.000   2.440
 27        1.075   1.366   0.000   2.440
 28        1.075   1.366   0.000   2.440
 29        0.484   0.570   8.484   9.538
 30        0.484   0.570   8.484   9.538
 31        0.484   0.570   8.484   9.538
 32        0.484   0.570   8.484   9.538
 33        0.456   0.605   8.412   9.472
 34        0.456   0.605   8.412   9.472
 35        0.456   0.605   8.412   9.473
 36        0.456   0.605   8.412   9.473
 37        0.473   0.591   8.445   9.510
 38        0.473   0.591   8.445   9.510
 39        0.474   0.591   8.445   9.510
 40        0.474   0.591   8.445   9.510
 41        0.476   0.620   8.433   9.529
 42        0.476   0.620   8.433   9.529
 43        0.476   0.620   8.434   9.530
 44        0.476   0.620   8.434   9.530
 45        0.482   0.619   8.428   9.529
 46        0.482   0.619   8.428   9.529
 47        0.482   0.619   8.426   9.527
 48        0.482   0.619   8.426   9.527
 49        0.485   0.621   8.437   9.543
 50        0.485   0.621   8.437   9.543
 51        0.484   0.620   8.438   9.543
 52        0.484   0.620   8.439   9.543
 53        0.492   0.570   8.482   9.544
 54        0.492   0.570   8.482   9.544
 55        0.493   0.571   8.486   9.550
 56        0.493   0.571   8.486   9.550
tot       42.888  55.320 236.491 334.699

 BZINTS: Fermi energy:  2.340500;420.000000 electrons
         Band energy:-744.152759;  BLOECHL correction: -0.010791